db/inputs/1723419095164772013232029387994726100.smt2
(set-logic QF_FP)
(declare-const x0 (_ FloatingPoint 11 53))
(declare-const x1 (_ FloatingPoint 11 53))
(declare-const x2 (_ FloatingPoint 11 53))
(declare-const x3 (_ FloatingPoint 11 53))
(declare-const x4 (_ FloatingPoint 11 53))
(declare-const x5 (_ FloatingPoint 11 53))
(declare-const x6 (_ FloatingPoint 11 53))
(declare-const x7 (_ FloatingPoint 11 53))
(assert (fp.geq (fp.mul RNE x5 x7) (fp.sub RNE x0 x1)))
(assert (fp.leq (fp.mul RNE x6 x4) (fp.div RNE x5 x6)))
(assert (fp.eq (fp.add RNE x5 x3) (fp.mul RNE x5 x0)))
(assert (fp.lt (fp.neg x6) (fp.sub RNE x0 x7)))
(assert (fp.eq (fp.div RNE x7 x0) (fp.div RNE x1 x7)))
(assert (fp.gt (fp.div RNE x4 x2) (fp.div RNE x2 x7)))
(assert (fp.lt (fp.sub RNE x6 x3) (fp.div RNE x3 x7)))
(assert (fp.lt (fp.neg x3) (fp.neg x0)))
(assert (fp.gt (fp.neg x3) (fp.neg x5)))
(assert (fp.lt (fp.add RNE x7 x1) (fp.add RNE x7 x7)))
(assert (fp.gt (fp.div RNE x5 x1) (fp.add RNE x0 x7)))
(assert (fp.lt (fp.neg x4) (fp.neg x5)))
(assert (fp.lt (fp.mul RNE x1 x7) (fp.neg x1)))
(assert (fp.leq (fp.neg x2) (fp.add RNE x4 x5)))
(assert (fp.lt (fp.add RNE x5 x3) (fp.sub RNE x4 x1)))
(assert (fp.lt (fp.sub RNE x0 x6) (fp.mul RNE x2 x5)))
(assert (fp.leq (fp.add RNE x0 x6) (fp.sub RNE x6 x1)))
(check-sat)
