db/data/1723419095164772013232029387994726100.z3.out
-------------------
2500.126435055
